32      4       
20      19      13      17      
0       0       0       0       0       3       2       12      13      
6       0       5       0       1       1       3       
1       7       0       1       0       2       31      4       
5       1       0       1       0       3       30      16      5       
7       0       1       0       13      2       7       6       
8       0       7       0       2       1       8       
5       0       1       0       9       3       29      23      11      
7       13      0       0       8       1       9       
9       8       0       0       8       2       23      10      
1       0       14      0       3       1       14      
2       0       7       8       0       1       14      
7       1       0       1       0       1       14      
9       0       9       0       5       1       14      
10      2       2       0       0       1       15      
9       1       0       3       0       2       28      17      
9       1       0       6       0       2       28      17      
2       0       1       1       0       2       27      18      
2       0       1       0       1       1       19      
1       15      0       0       6       1       20      
10      7       0       1       0       1       21      
1       1       1       0       0       2       26      22      
5       4       0       1       0       1       24      
4       0       3       0       4       1       24      
7       0       5       6       0       1       25      
9       8       0       5       0       1       32      
6       0       0       3       1       1       32      
2       5       0       2       0       1       32      
3       1       0       0       1       1       32      
8       0       13      5       0       1       32      
5       0       0       5       1       1       32      
4       0       1       0       1       1       32      
0       0       0       0       0       0       
